33D32945 STP File, STP Format Version 1.0

SECTION Comments
Name "edge_n15_d5_s26"
Problem "Euclidean Steiner Tree Problem"
Remark "Generated with STPGenerator. 5 dimensions."
END

SECTION Graph
Nodes 15
END

SECTION Coordinates
DDDDD 0 0.7955457819 0.7955457819 0.7955457819 0.7955457819 0.7955457819
DDDDD 1 0.2153102822 0.2153102822 0.2153102822 0.2153102822 0.2153102822
DDDDD 2 0.3426214272 0.3426214272 0.3426214272 0.3426214272 0.3426214272
DDDDD 3 0.2961611940 0.2961611940 0.2961611940 0.2961611940 0.2961611940
DDDDD 4 0.2554381654 0.2554381654 0.2554381654 0.2554381654 0.2554381654
DDDDD 5 0.7100804400 0.7100804400 0.7100804400 0.7100804400 0.7100804400
DDDDD 6 0.8547150078 0.8547150078 0.8547150078 0.8547150078 0.8547150078
DDDDD 7 0.6357949691 0.6357949691 0.6357949691 0.6357949691 0.6357949691
DDDDD 8 0.4054190886 0.4054190886 0.4054190886 0.4054190886 0.4054190886
DDDDD 9 0.6635035848 0.6635035848 0.6635035848 0.6635035848 0.6635035848
DDDDD 10 0.7047985609 0.7047985609 0.7047985609 0.7047985609 0.7047985609
DDDDD 11 0.1648330605 0.1648330605 0.1648330605 0.1648330605 0.1648330605
DDDDD 12 0.8887816281 0.8887816281 0.8887816281 0.8887816281 0.8887816281
DDDDD 13 0.2970957897 0.2970957897 0.2970957897 0.2970957897 0.2970957897
DDDDD 14 0.7287201051 0.7287201051 0.7287201051 0.7287201051 0.7287201051
END
